%UNIQUENESS RULES
DIAGONAL_LtR = false;
DIAGONAL_RtL = false;

MULTI_DIAGONAL_LtR = false;
MULTI_DIAGONAL_RtL = false;

KING = true;
KNIGHT = true;

%SUCCESSOR RULES
ORTHOGONAL = false;
DIAGONAL = false;

%WHISPER RULES
ORTHOGONAL_WHISPER = false;

DIAGONAL_WHISPER_LtR = false;
DIAGONAL_WHISPER_RtL = false;



start=[|
0, 0, 0, 0, 0, 0, 0, 0, 0|
0, 0, 0, 0, 0, 0, 0, 0, 0|
0, 0, 0, 0, 0, 0, 0, 0, 0|
0, 0, 0, 0, 0, 0, 0, 0, 0|
0, 0, 1, 0, 0, 0, 0, 0, 0|
0, 0, 0, 0, 0, 0, 2, 0, 0|
0, 0, 0, 0, 0, 0, 0, 0, 0|
0, 0, 0, 0, 0, 0, 0, 0, 0|
0, 0, 0, 0, 0, 0, 0, 0, 0|];
